DIMACS2
20 108 11 41 111 77 155 47 157 99 93 65 64 69 92 27 24 17 52 12 104
p edge 160 651
e 0 122 1.0
e 0 84 1.0
e 0 143 1.0
e 0 48 1.0
e 1 135 1.0
e 1 138 1.0
e 1 121 2.0
e 1 111 38.0
e 2 119 1.0
e 2 34 1.0
e 2 58 1.0
e 2 60 1.0
e 3 37 1.0
e 3 72 2.0
e 3 14 1.0
e 3 152 1.0
e 4 12 12.0
e 4 89 1.0
e 4 106 1.0
e 4 90 1.0
e 5 12 7.0
e 5 32 1.0
e 5 113 1.0
e 5 155 19.0
e 6 11 30.0
e 6 31 3.0
e 6 37 1.0
e 6 98 1.0
e 7 13 1.0
e 7 108 24.0
e 7 55 1.0
e 7 134 1.0
e 8 27 27.0
e 8 61 1.0
e 8 30 1.0
e 8 73 1.0
e 9 144 1.0
e 9 104 7.0
e 9 42 1.0
e 9 85 1.0
e 10 26 3.0
e 10 32 1.0
e 10 126 2.0
e 10 119 1.0
e 11 158 45.0
e 11 148 20.0
e 11 12 28.0
e 11 101 7.0
e 11 155 32.0
e 11 17 3.0
e 11 104 25.0
e 11 47 36.0
e 12 90 39.0
e 12 84 2.0
e 12 115 31.0
e 13 12 11.0
e 13 50 2.0
e 13 38 2.0
e 14 109 1.0
e 14 57 1.0
e 14 15 2.0
e 14 54 1.0
e 15 12 10.0
e 15 123 1.0
e 15 72 1.0
e 15 28 1.0
e 16 150 1.0
e 16 96 1.0
e 16 148 1.0
e 16 61 1.0
e 17 149 3.0
e 17 58 23.0
e 17 143 5.0
e 17 138 32.0
e 17 52 2.0
e 18 113 1.0
e 18 139 1.0
e 18 143 1.0
e 18 83 1.0
e 19 41 13.0
e 19 39 1.0
e 19 151 2.0
e 19 115 3.0
e 20 27 35.0
e 20 121 1.0
e 20 17 8.0
e 20 57 2.0
e 21 148 1.0
e 21 106 1.0
e 21 57 1.0
e 21 48 1.0
e 22 132 3.0
e 22 107 1.0
e 22 130 1.0
e 22 119 1.0
e 23 18 1.0
e 23 29 1.0
e 23 110 1.0
e 23 24 33.0
e 24 42 31.0
e 24 57 30.0
e 24 59 10.0
e 24 123 29.0
e 25 3 1.0
e 25 138 1.0
e 25 6 1.0
e 25 31 2.0
e 26 63 2.0
e 26 122 1.0
e 26 47 46.0
e 26 117 1.0
e 27 101 2.0
e 27 125 11.0
e 27 155 12.0
e 27 140 1.0
e 28 128 1.0
e 28 57 3.0
e 28 36 2.0
e 28 129 1.0
e 29 46 1.0
e 29 137 1.0
e 29 40 1.0
e 29 28 1.0
e 30 88 1.0
e 30 83 1.0
e 30 139 1.0
e 30 128 2.0
e 31 95 2.0
e 31 128 1.0
e 31 8 1.0
e 32 102 2.0
e 32 7 1.0
e 32 156 1.0
e 33 94 2.0
e 33 92 43.0
e 33 145 1.0
e 33 68 1.0
e 34 38 1.0
e 34 102 1.0
e 34 18 1.0
e 34 82 1.0
e 35 49 2.0
e 35 104 38.0
e 35 46 2.0
e 35 109 1.0
e 36 96 2.0
e 36 0 3.0
e 36 101 2.0
e 36 46 3.0
e 37 61 1.0
e 37 113 1.0
e 37 68 1.0
e 37 9 1.0
e 38 70 1.0
e 38 105 1.0
e 38 116 1.0
e 38 153 1.0
e 39 142 1.0
e 39 21 2.0
e 39 26 1.0
e 39 99 24.0
e 40 128 1.0
e 40 5 1.0
e 40 53 1.0
e 40 15 1.0
e 41 31 10.0
e 41 33 9.0
e 41 92 34.0
e 41 83 10.0
e 41 108 13.0
e 42 10 1.0
e 42 90 2.0
e 42 120 1.0
e 42 68 2.0
e 43 101 1.0
e 43 80 1.0
e 43 147 1.0
e 43 122 1.0
e 44 71 1.0
e 44 32 1.0
e 44 115 1.0
e 44 84 1.0
e 45 128 1.0
e 45 31 2.0
e 45 9 1.0
e 45 105 1.0
e 46 34 1.0
e 46 55 1.0
e 46 41 9.0
e 46 147 1.0
e 47 54 26.0
e 47 29 9.0
e 47 111 5.0
e 47 17 40.0
e 48 20 1.0
e 48 56 1.0
e 48 58 1.0
e 49 114 1.0
e 49 91 1.0
e 49 81 1.0
e 49 66 1.0
e 50 23 1.0
e 50 124 1.0
e 50 37 1.0
e 51 29 1.0
e 51 80 1.0
e 51 23 1.0
e 51 94 2.0
e 52 136 12.0
e 52 143 26.0
e 52 58 11.0
e 52 155 31.0
e 53 95 1.0
e 53 83 1.0
e 53 74 1.0
e 53 130 2.0
e 54 18 1.0
e 54 117 1.0
e 54 7 1.0
e 54 49 1.0
e 55 12 17.0
e 55 53 1.0
e 55 29 2.0
e 55 0 2.0
e 56 144 2.0
e 56 65 45.0
e 56 132 1.0
e 56 15 1.0
e 57 149 2.0
e 57 89 2.0
e 57 22 1.0
e 57 138 1.0
e 58 145 1.0
e 58 127 1.0
e 58 76 2.0
e 58 105 1.0
e 59 17 34.0
e 59 27 18.0
e 59 45 1.0
e 59 148 1.0
e 60 127 1.0
e 60 120 3.0
e 60 101 1.0
e 60 83 1.0
e 61 23 1.0
e 61 33 1.0
e 61 138 1.0
e 61 88 2.0
e 62 98 1.0
e 62 123 1.0
e 62 117 1.0
e 62 141 1.0
e 63 52 8.0
e 63 145 1.0
e 63 46 1.0
e 63 154 1.0
e 64 87 15.0
e 64 59 31.0
e 64 113 44.0
e 64 61 43.0
e 64 157 28.0
e 64 11 40.0
e 64 12 38.0
e 65 29 3.0
e 65 105 32.0
e 65 121 11.0
e 65 30 6.0
e 65 64 42.0
e 65 157 43.0
e 65 52 14.0
e 66 57 2.0
e 66 145 1.0
e 66 62 2.0
e 66 16 1.0
e 67 14 1.0
e 67 97 1.0
e 67 70 1.0
e 67 45 1.0
e 68 98 1.0
e 68 45 1.0
e 68 1 2.0
e 68 10 1.0
e 69 112 22.0
e 69 46 3.0
e 69 83 13.0
e 69 136 23.0
e 69 64 45.0
e 69 157 15.0
e 70 62 1.0
e 70 85 1.0
e 70 0 1.0
e 70 128 1.0
e 71 126 1.0
e 71 92 15.0
e 71 48 1.0
e 71 93 24.0
e 72 138 1.0
e 72 119 1.0
e 72 153 1.0
e 72 24 3.0
e 73 77 23.0
e 73 24 44.0
e 73 39 1.0
e 73 119 1.0
e 74 71 1.0
e 74 151 1.0
e 74 44 1.0
e 74 6 1.0
e 75 157 4.0
e 75 58 1.0
e 75 43 1.0
e 75 59 3.0
e 76 52 27.0
e 76 25 1.0
e 76 101 3.0
e 76 123 1.0
e 77 90 6.0
e 77 6 11.0
e 77 23 19.0
e 77 60 24.0
e 77 65 34.0
e 77 92 40.0
e 77 17 17.0
e 78 26 2.0
e 78 73 1.0
e 78 142 1.0
e 78 59 1.0
e 79 33 1.0
e 79 139 1.0
e 79 90 1.0
e 79 103 2.0
e 80 39 2.0
e 80 56 1.0
e 80 155 41.0
e 80 64 9.0
e 81 39 1.0
e 81 61 2.0
e 81 106 1.0
e 81 122 1.0
e 82 51 1.0
e 82 57 1.0
e 82 36 1.0
e 82 84 1.0
e 83 67 1.0
e 83 39 1.0
e 83 19 1.0
e 83 78 1.0
e 84 143 2.0
e 84 115 1.0
e 84 117 2.0
e 84 14 1.0
e 85 141 1.0
e 85 2 1.0
e 85 66 1.0
e 85 49 1.0
e 86 95 1.0
e 86 41 32.0
e 86 158 1.0
e 86 150 1.0
e 87 23 1.0
e 87 90 1.0
e 87 18 2.0
e 87 94 2.0
e 88 80 1.0
e 88 151 1.0
e 88 60 1.0
e 88 70 1.0
e 89 18 1.0
e 89 37 1.0
e 89 136 2.0
e 89 1 3.0
e 90 141 1.0
e 90 144 1.0
e 90 60 1.0
e 90 24 43.0
e 91 88 1.0
e 91 137 1.0
e 91 152 1.0
e 91 127 1.0
e 92 86 1.0
e 92 115 36.0
e 92 89 23.0
e 92 69 17.0
e 92 108 1.0
e 93 101 14.0
e 93 62 42.0
e 93 8 36.0
e 93 63 22.0
e 93 41 20.0
e 93 92 26.0
e 94 68 2.0
e 94 115 1.0
e 94 9 1.0
e 94 47 48.0
e 95 60 1.0
e 95 45 1.0
e 95 38 1.0
e 95 62 2.0
e 96 82 1.0
e 96 83 1.0
e 96 107 1.0
e 96 103 2.0
e 97 63 1.0
e 97 28 1.0
e 97 112 1.0
e 97 3 2.0
e 98 59 1.0
e 98 0 1.0
e 98 150 1.0
e 98 39 2.0
e 99 9 27.0
e 99 36 41.0
e 99 27 28.0
e 99 44 28.0
e 100 138 1.0
e 100 106 1.0
e 100 76 1.0
e 100 33 1.0
e 101 71 1.0
e 101 8 1.0
e 101 62 1.0
e 102 150 1.0
e 102 69 33.0
e 102 87 1.0
e 102 44 2.0
e 103 91 1.0
e 103 18 2.0
e 103 47 48.0
e 103 128 2.0
e 104 93 38.0
e 104 126 24.0
e 104 91 6.0
e 104 114 28.0
e 104 77 19.0
e 105 68 1.0
e 105 109 1.0
e 105 62 1.0
e 105 77 21.0
e 106 156 1.0
e 106 13 1.0
e 106 57 2.0
e 106 99 19.0
e 107 15 2.0
e 107 38 1.0
e 107 25 1.0
e 107 26 1.0
e 108 54 18.0
e 108 158 12.0
e 108 9 22.0
e 108 153 37.0
e 108 93 18.0
e 108 104 48.0
e 109 134 1.0
e 109 22 1.0
e 109 57 2.0
e 109 39 1.0
e 110 156 1.0
e 110 142 1.0
e 110 102 2.0
e 110 48 1.0
e 111 131 47.0
e 111 118 2.0
e 111 106 19.0
e 111 44 12.0
e 111 108 16.0
e 112 141 1.0
e 112 5 1.0
e 112 114 1.0
e 112 66 1.0
e 113 104 14.0
e 113 36 2.0
e 113 127 1.0
e 113 59 1.0
e 114 131 1.0
e 114 117 1.0
e 114 99 39.0
e 114 71 1.0
e 115 117 1.0
e 115 157 48.0
e 115 149 1.0
e 115 57 1.0
e 116 20 1.0
e 116 106 1.0
e 116 89 2.0
e 116 52 22.0
e 117 42 3.0
e 117 19 1.0
e 117 8 1.0
e 117 36 1.0
e 118 112 1.0
e 118 146 1.0
e 118 95 1.0
e 118 110 1.0
e 119 85 1.0
e 119 102 1.0
e 119 75 1.0
e 119 114 1.0
e 120 2 1.0
e 120 99 23.0
e 120 74 2.0
e 120 68 2.0
e 121 7 1.0
e 121 63 1.0
e 121 158 1.0
e 121 106 1.0
e 122 47 44.0
e 122 91 2.0
e 122 44 1.0
e 123 111 21.0
e 123 74 1.0
e 123 33 1.0
e 123 128 1.0
e 124 22 1.0
e 124 24 26.0
e 124 69 42.0
e 124 28 1.0
e 125 66 1.0
e 125 19 2.0
e 125 68 1.0
e 125 57 2.0
e 126 62 1.0
e 126 128 2.0
e 126 109 2.0
e 126 117 1.0
e 127 39 1.0
e 127 46 1.0
e 127 142 1.0
e 127 81 1.0
e 128 36 1.0
e 128 47 42.0
e 128 16 1.0
e 128 106 1.0
e 129 6 1.0
e 129 130 1.0
e 129 141 2.0
e 129 38 1.0
e 130 103 2.0
e 130 74 2.0
e 130 93 22.0
e 130 106 2.0
e 131 102 1.0
e 131 98 1.0
e 131 143 1.0
e 131 90 1.0
e 132 89 1.0
e 132 126 1.0
e 132 118 3.0
e 132 99 11.0
e 133 85 1.0
e 133 38 1.0
e 133 8 1.0
e 133 49 1.0
e 134 130 2.0
e 134 105 1.0
e 134 3 1.0
e 134 58 1.0
e 135 49 2.0
e 135 114 2.0
e 135 52 37.0
e 135 106 1.0
e 136 126 2.0
e 136 23 1.0
e 136 144 1.0
e 137 39 2.0
e 137 131 2.0
e 137 8 1.0
e 137 106 1.0
e 138 20 3.0
e 138 35 1.0
e 138 68 2.0
e 138 158 1.0
e 139 49 1.0
e 139 130 2.0
e 140 8 1.0
e 140 150 1.0
e 140 146 1.0
e 140 129 1.0
e 141 69 6.0
e 141 80 2.0
e 141 56 2.0
e 141 42 1.0
e 142 79 1.0
e 142 135 1.0
e 142 30 1.0
e 142 74 1.0
e 143 1 1.0
e 143 63 1.0
e 143 41 16.0
e 143 105 1.0
e 144 142 1.0
e 144 43 1.0
e 144 34 1.0
e 144 115 1.0
e 145 65 5.0
e 145 103 1.0
e 145 157 24.0
e 145 143 1.0
e 146 105 1.0
e 146 27 48.0
e 146 117 1.0
e 146 154 1.0
e 147 124 1.0
e 147 66 1.0
e 147 42 2.0
e 147 49 1.0
e 148 24 7.0
e 148 2 1.0
e 148 25 1.0
e 148 130 2.0
e 149 154 2.0
e 149 109 1.0
e 149 9 1.0
e 149 33 2.0
e 150 153 1.0
e 150 135 1.0
e 150 156 1.0
e 150 146 1.0
e 151 20 1.0
e 151 42 2.0
e 151 128 1.0
e 151 140 1.0
e 152 128 1.0
e 152 76 2.0
e 152 141 2.0
e 152 58 1.0
e 153 88 1.0
e 153 114 1.0
e 153 13 1.0
e 153 23 2.0
e 154 127 2.0
e 154 95 1.0
e 154 155 24.0
e 155 63 32.0
e 155 112 47.0
e 155 147 34.0
e 155 125 25.0
e 156 22 1.0
e 156 21 1.0
e 156 143 1.0
e 156 51 1.0
e 157 118 13.0
e 157 128 37.0
e 157 121 22.0
e 157 60 28.0
e 158 15 1.0
e 158 58 1.0
e 158 99 13.0
e 158 87 2.0
e 159 27 36.0
e 159 22 1.0
e 159 127 1.0
